c User generated cnf file
p cnf 12 20
6 2 -1 0 
-4 8 4 0 
1 -4 10 0 
-10 5 6 0 
1 10 -7 0 
-9 10 10 0 
4 1 -3 0 
7 6 -2 0 
11 3 -5 0 
5 -3 12 0 
-2 12 8 0 
1 12 -9 0 
-12 11 1 0 
10 -7 5 0 
8 -1 10 0 
12 2 -7 0 
1 8 -2 0 
11 1 -8 0 
5 -8 9 0 
11 -6 9 0 
